c Output_time 26.03.2020 18:13:09_+0100 1585242789637982407
c ** Program information **
c program_name                          "QBRG_debug"
c version                               "0.3.20"
c date                                  "25.3.2020"
c gid_id                                "673970833836058123f633335630c185360d632e"
c author                                "Oliver Kullmann"
c url                                   "https://github.com/OKullmann/oklibrary/blob/master/Satisfiability/Transformers/Generators/Random/QBRG.cpp"
c ** Machine information **
c machine_name                          "chyna-Lenovo-G50-70"
c bogomips                              3791.08
c ** Compilation information **
c compiler_version                      "g++ 7.5.0"
c compilation_date                      "Mar_26_2020 11:16:30"
c compilation_options                   "--std=c++17 -pedantic -fmax-errors=5 -Wall -Wextra -g -D_GLIBCXX_DEBUG"
c NDEBUG                                0
c OPTIMIZE                              0
c ** Parameters **
c command-line                          "./QBRG_debug" "e40 a40 40" "133*1,1|2-2,1|3-3,1" "" "1,t" ""
c output                                "QuBlRaGe_120_133_1585242789629896285.qdimacs"
c options                               "filtered,renamed"
c num_quantifier_blocks                 3
c  quantifier_blocks                    1:e1-40 2:a41-80 3:e81-120
c num_clause-blocks                     1
c  clause-blocks                        133 * {1-40,1,1/2} | {41-80,1,1/2} | {81-120,1,1/2}
c num_e-seeds                           30+2=32
c  e-seeds                              1 0 1 0 4 120 2 40 1 40 0 40 1 133 3 1 1 1 1 2 2 2 1 1 2 3 3 1 1 2 1 1585242789629895874
p cnf 116 133
e 1 2 3 4 5 6 7 8 9 10 11 12 13 14 15 16 17 18 19 20 21 22 23 24 25 26 27 28 29 30 31 32 33 34 35 36 37 38 39 40 0
a 41 42 43 44 45 46 47 48 49 50 51 52 53 54 55 56 57 58 59 60 61 62 63 64 65 66 67 68 69 70 71 72 73 74 75 76 77 78 0
e 79 80 81 82 83 84 85 86 87 88 89 90 91 92 93 94 95 96 97 98 99 100 101 102 103 104 105 106 107 108 109 110 111 112 113 114 115 116 0
13 54 -79 0
1 71 -79 0
35 -45 -80 0
26 -53 -81 0
-22 -73 -81 0
-20 -48 81 0
-6 72 -82 0
33 -74 -82 0
15 -53 82 0
-27 72 -83 0
-20 45 83 0
32 42 84 0
26 52 84 0
-5 -55 84 0
4 55 84 0
33 61 84 0
6 -68 84 0
33 61 -85 0
-1 -62 86 0
28 -41 -87 0
21 -63 -87 0
-2 -41 -88 0
-1 -44 -88 0
-3 47 -88 0
-40 50 88 0
30 -76 88 0
-8 72 -89 0
20 76 -89 0
35 52 89 0
39 77 89 0
-13 60 -90 0
17 76 -90 0
-10 66 90 0
31 -62 -91 0
-35 -59 91 0
5 64 -92 0
14 -76 -92 0
-18 -49 -93 0
-35 -56 -93 0
-14 -69 94 0
19 72 94 0
-29 62 -95 0
-22 -66 -95 0
-23 74 -95 0
5 -42 95 0
-30 -57 95 0
-23 -60 95 0
11 56 -96 0
-11 64 96 0
-9 58 -97 0
-24 -66 -97 0
5 45 97 0
11 48 97 0
20 65 97 0
39 -43 -98 0
32 56 -98 0
36 67 98 0
21 54 -99 0
-23 -50 -100 0
18 -51 -100 0
10 -74 -100 0
-2 55 -101 0
-30 -45 101 0
-2 54 101 0
39 -67 101 0
16 70 101 0
-8 42 -102 0
24 -58 -102 0
-26 -43 102 0
12 -48 102 0
30 50 102 0
-12 -53 102 0
13 60 102 0
-14 76 102 0
40 50 -103 0
7 -63 -103 0
-39 -72 -103 0
20 -71 -104 0
12 73 -104 0
-35 50 104 0
-34 -53 104 0
-25 -55 104 0
-21 61 104 0
15 64 104 0
-9 -74 104 0
5 45 -105 0
-1 -42 105 0
11 -51 105 0
-25 61 105 0
2 -74 105 0
-18 47 106 0
-12 59 106 0
40 68 106 0
-9 -46 -107 0
-13 -54 -107 0
38 73 -107 0
17 69 107 0
26 -75 107 0
21 57 108 0
-40 74 108 0
-21 75 -109 0
39 50 109 0
-16 -57 109 0
-3 61 -110 0
-37 45 110 0
-21 -56 110 0
7 -66 110 0
-16 74 110 0
-23 78 110 0
-34 77 -111 0
-25 -45 111 0
5 -67 111 0
-16 -57 -112 0
17 63 -112 0
-34 -66 -112 0
-24 -46 112 0
-24 -51 112 0
30 -52 112 0
36 -56 112 0
27 -64 112 0
-1 -78 112 0
-27 -50 -113 0
7 74 -113 0
-8 41 -114 0
28 -64 -114 0
40 74 -114 0
-27 -48 114 0
33 59 114 0
6 -41 -115 0
34 -49 -115 0
10 72 -115 0
30 66 -116 0
-40 -63 116 0
